nvertices = 19;
owners    = [1,0,0,1,0,0,1,1,0,0,1,0,0,1,0,1,0,1,0];
colors    = [2,1,2,2,1,2,2,4,3,4,4,3,4,4,6,5,6,5,6];
nedges    = 40;
sources   = [1,1,2,3,3,3,4,4,4,5,6,6,6,7,8,8,9,10,10,10,11,11,11,12,13,13,13,14,15,16,16,16,16,17,17,18,18,18,18,19];
targets   = [2,3,3,1,4,16,3,5,6,6,4,7,18,6,9,10,10,8,11,16,10,12,13,13,11,14,18,13,16,15,17,3,10,16,18,17,19,6,13,18];
